NAME          BLANK   
ROWS
 N  OBJROW
 L  R0000000
COLUMNS
    C0000000  OBJROW     -168.         R0000000  684.        
    C0000001  OBJROW     -547.         R0000000  45.         
    C0000002  OBJROW     -584.         R0000000  678.        
    C0000003  OBJROW     -914.         R0000000  302.        
    C0000004  OBJROW     -225.         R0000000  485.        
    C0000005  OBJROW     -117.         R0000000  320.        
    C0000006  OBJROW     -37.          R0000000  49.         
    C0000007  OBJROW     -69.          R0000000  402.        
    C0000008  OBJROW     -473.         R0000000  121.        
    C0000009  OBJROW     -665.         R0000000  618.        
    C0000010  OBJROW     -392.         R0000000  113.        
    C0000011  OBJROW     -778.         R0000000  224.        
    C0000012  OBJROW     -336.         R0000000  451.        
    C0000013  OBJROW     -673.         R0000000  761.        
    C0000014  OBJROW     -285.         R0000000  881.        
    C0000015  OBJROW     -859.         R0000000  889.        
    C0000016  OBJROW     -581.         R0000000  44.         
    C0000017  OBJROW     -269.         R0000000  234.        
    C0000018  OBJROW     -124.         R0000000  721.        
    C0000019  OBJROW     -276.         R0000000  761.        
RHS
    RHS       R0000000  14444.      
BOUNDS
 BV BOUND     C0000000  1.          
 BV BOUND     C0000001  1.          
 BV BOUND     C0000002  1.          
 BV BOUND     C0000003  1.          
 BV BOUND     C0000004  1.          
 BV BOUND     C0000005  1.          
 BV BOUND     C0000006  1.          
 BV BOUND     C0000007  1.          
 BV BOUND     C0000008  1.          
 BV BOUND     C0000009  1.          
 BV BOUND     C0000010  1.          
 BV BOUND     C0000011  1.          
 BV BOUND     C0000012  1.          
 BV BOUND     C0000013  1.          
 BV BOUND     C0000014  1.          
 BV BOUND     C0000015  1.          
 BV BOUND     C0000016  1.          
 BV BOUND     C0000017  1.          
 BV BOUND     C0000018  1.          
 BV BOUND     C0000019  1.          
ENDATA
